cmake-build-debug/11eil51.gtsp
NAME : eil51
COMMENT : 51-city problem (Christofides/Eilon)
TYPE : TSP
DIMENSION : 9
EDGE_WEIGHT_TYPE : EUC_2D
NODE_COORD_SECTION
1 2 4
2 7 1
3 5 9
4 3 6
5 8 3
6 1 5
7 5 5
8 2 3
9 5 3
GTSP_SET_SECTION:
1 19 40 41 -1
2 3 20 35 36 -1
3 24 43 -1
4 33 39 -1
5 11 12 27 32 46 47 51 -1
6 2 16 21 29 34 50 -1
7 8 22 26 28 31 -1
8 13 14 18 25 -1
9 4 15 17 37 42 44 45 -1
10 1 6 7 23 48 -1
11 5 9 10 30 38 49 -1
EOF
