cmake-build-debug/11eil51.out
--- Puncte vizitate
7
--- Ordinea de vizitare
8, 1, 6, 4, 7, 9, 2, 8
--- Distanța totală calculată
14
